c generated by sgen3tocnf
c nLits = 639
c actual nVars = 213
c Command: sgen3tocnf 72 14 0 0 216 3 1 0 /dev/null
p cnf 216 285
-133 -58 0
-133 -160 0
-58 -160 0
-115 -61 0
-115 -94 0
-61 -94 0
-67 -202 0
-67 -88 0
-202 -88 0
-118 -172 0
-118 -79 0
-172 -79 0
-91 -70 0
-91 -1 0
-70 -1 0
-46 -7 0
-46 -13 0
-7 -13 0
-85 -2 0
-85 -49 0
-2 -49 0
-52 -130 0
-52 -37 0
-130 -37 0
-62 -53 0
-62 -92 0
-53 -92 0
-89 -28 0
-89 -148 0
-28 -148 0
-161 -10 0
-161 -106 0
-10 -106 0
-95 -97 0
-95 -86 0
-97 -86 0
-80 -190 0
-80 -4 0
-190 -4 0
-136 -176 0
-136 -124 0
-176 -124 0
-82 -149 0
-82 -137 0
-149 -137 0
-16 -187 0
-16 -119 0
-187 -119 0
-131 -34 0
-131 -169 0
-34 -169 0
-14 -83 0
-14 -71 0
-83 -71 0
-125 -142 0
-125 -98 0
-142 -98 0
-25 -184 0
-25 -100 0
-184 -100 0
-64 -76 0
-64 -203 0
-76 -203 0
-205 -121 0
-205 -40 0
-121 -40 0
-103 -19 0
-103 -173 0
-19 -173 0
-151 -178 0
-151 -31 0
-178 -31 0
-143 -22 0
-143 -163 0
-22 -163 0
-211 -41 0
-211 -17 0
-41 -17 0
-50 -157 0
-50 -196 0
-157 -196 0
-174 -73 0
-174 -11 0
-73 -11 0
-166 -18 0
-166 -43 0
-18 -43 0
-55 -134 0
-55 -122 0
-134 -122 0
-29 -199 0
-29 -35 0
-199 -35 0
-20 -38 0
-20 -177 0
-38 -177 0
-208 -32 0
-208 -185 0
-32 -185 0
-42 -101 0
-42 -139 0
-101 -139 0
-107 -90 0
-107 -77 0
-90 -77 0
-140 -120 0
-140 -56 0
-120 -56 0
-158 -87 0
-158 -30 0
-87 -30 0
-197 -44 0
-197 -212 0
-44 -212 0
-179 -138 0
-179 -8 0
-138 -8 0
-72 -81 0
-72 -132 0
-81 -132 0
-193 -167 0
-193 -144 0
-167 -144 0
-9 -162 0
-9 -209 0
-162 -209 0
-154 -141 0
-154 -47 0
-141 -47 0
-123 -181 0
-123 -109 0
-181 -109 0
-23 -210 0
-23 -191 0
-210 -191 0
-200 -152 0
-200 -155 0
-152 -155 0
-150 -198 0
-150 -74 0
-198 -74 0
-110 -213 0
-110 -188 0
-213 -188 0
-182 -48 0
-182 -168 0
-48 -168 0
-204 -156 0
-204 -21 0
-156 -21 0
-127 -51 0
-127 -180 0
-51 -180 0
-164 -128 0
-164 -145 0
-128 -145 0
-78 -26 0
-78 -63 0
-26 -63 0
-45 -165 0
-45 -84 0
-165 -84 0
-192 -170 0
-192 -159 0
-170 -159 0
-36 -68 0
-36 -104 0
-68 -104 0
-171 -65 0
-171 -24 0
-65 -24 0
-189 -108 0
-189 -194 0
-108 -194 0
-33 -116 0
-33 -183 0
-116 -183 0
-186 -5 0
-186 -112 0
-5 -112 0
-3 -111 0
-3 -206 0
-111 -206 0
-146 -126 0
-146 -54 0
-126 -54 0
-113 -96 0
-113 -129 0
-96 -129 0
-99 -147 0
-99 -117 0
-147 -117 0
-59 -207 0
-59 -201 0
-207 -201 0
-102 -215 0
-102 -69 0
-215 -69 0
-216 -114 0
-216 -153 0
-114 -153 0
-75 -57 0
-75 -66 0
-57 -66 0
-12 -15 0
-12 -27 0
-15 -27 0
-39 -195 0
-39 -135 0
-195 -135 0
-6 -105 0
-6 -60 0
-105 -60 0
3 2 1 0
6 5 4 0
9 7 8 0
12 10 11 0
14 15 13 0
16 18 17 0
20 19 21 0
23 22 24 0
25 26 27 0
29 28 30 0
33 32 31 0
36 34 35 0
39 38 37 0
42 41 40 0
45 44 43 0
46 48 47 0
50 51 49 0
52 53 54 0
55 57 56 0
59 58 60 0
62 61 63 0
64 65 66 0
67 68 69 0
72 70 71 0
75 73 74 0
78 76 77 0
80 81 79 0
82 83 84 0
85 87 86 0
89 90 88 0
91 92 0
95 96 94 0
99 97 98 0
102 101 100 0
103 105 104 0
107 108 106 0
110 111 109 0
113 114 112 0
115 116 117 0
118 120 119 0
123 121 122 0
125 126 124 0
127 128 129 0
131 130 132 0
133 134 135 0
136 138 137 0
140 141 139 0
143 142 144 0
146 147 145 0
150 149 148 0
151 152 153 0
154 156 155 0
158 157 159 0
161 162 160 0
164 165 163 0
166 167 168 0
171 170 169 0
174 172 173 0
176 177 0
179 178 180 0
182 181 183 0
186 184 185 0
189 187 188 0
192 190 191 0
193 195 194 0
197 198 196 0
200 199 201 0
204 202 203 0
205 207 206 0
208 210 209 0
211 213 212 0
216 215 0
